<number of tasks>
50

<cycle time>
1000

<order strength>
0.595


<task times>
1 520
2 433
3 424
4 488
5 591
6 181
7 590
8 521
9 409
10 475
11 661
12 545
13 486
14 612
15 371
16 552
17 524
18 520
19 324
20 598
21 647
22 578
23 579
24 332
25 717
26 863
27 400
28 486
29 512
30 273
31 516
32 453
33 200
34 628
35 546
36 605
37 285
38 589
39 656
40 435
41 563
42 525
43 617
44 572
45 339
46 298
47 473
48 539
49 491
50 421

<precedence relations>
1,6
1,8
1,9
2,7
2,14
2,15
2,16
2,17
2,18
3,8
3,9
4,8
4,9
5,8
5,9
6,12
7,13
8,10
8,14
8,15
8,16
8,17
8,18
9,11
9,14
9,15
9,16
9,17
9,18
10,19
11,20
12,22
13,23
14,21
14,24
15,24
16,39
17,32
18,24
19,27
20,27
21,25
22,26
23,28
24,27
24,28
24,29
25,31
26,30
27,43
27,44
28,32
28,33
29,32
29,33
30,34
31,35
32,35
33,35
34,36
35,36
36,37
36,38
36,39
37,40
38,41
39,42
39,43
39,44
39,45
40,48
41,46
42,47
43,48
43,49
43,50
44,48
44,49
44,50
45,49

<end>
